5 5
0 96 2 65 1 8 4 45 3 87
0 47 3 40 1 76 2 54 4 76
2 46 0 47 4 15 3 19 1 26
3 52 1 93 2 22 4 21 0 51
3 38 2 20 4 29 1 51 0 4
-1
0 1 2 5
0 3 5
0 3 5
0 2 4 5
0 1 2 5
-2
111 254 360
208 371
108 153
169 240 301
44 86 166

371 10
5 0 11 24 19
16 7 2 23 14
10 21 1 17 8
15 20 6 13 4
22 12 3 18 9
